************************************************************************
file with basedata            : mm4_.bas
initial value random generator: 26985393
************************************************************************
projects                      :  1
jobs (incl. supersource/sink ):  12
horizon                       :  71
RESOURCES
  - renewable                 :  2   R
  - nonrenewable              :  2   N
  - doubly constrained        :  0   D
************************************************************************
PROJECT INFORMATION:
pronr.  #jobs rel.date duedate tardcost  MPM-Time
    1     10      0       15        5       15
************************************************************************
PRECEDENCE RELATIONS:
jobnr.    #modes  #successors   successors
   1        1          3           2   3   4
   2        3          2          10  11
   3        3          2           5   6
   4        3          1           8
   5        3          2           8   9
   6        3          3           7   9  11
   7        3          1           8
   8        3          1          10
   9        3          1          12
  10        3          1          12
  11        3          1          12
  12        1          0        
************************************************************************
REQUESTS/DURATIONS:
jobnr. mode duration  R 1  R 2  N 1  N 2
------------------------------------------------------------------------
  1      1     0       0    0    0    0
  2      1     2       0    8    0    8
         2     2       0    9    0    5
         3     5       8    0    3    0
  3      1     5       0    5    3    0
         2    10       0    5    2    0
         3    10       6    0    3    0
  4      1     6       0    4    8    0
         2     9       0    4    0    5
         3     9       0    4    5    0
  5      1     1       4    0    0    9
         2     1       0    4    8    0
         3     6       0    4    0   10
  6      1     1       2    0    0    6
         2     2       0    5    9    0
         3     5       2    0    5    0
  7      1     2       0    6    5    0
         2     2       0    8    3    0
         3     8       0    4    0    2
  8      1     2       0    4    7    0
         2     6       2    0    2    0
         3     7       2    0    0    8
  9      1     3       0    9    0    7
         2     4       1    0    0    7
         3     6       0    7    2    0
 10      1     5       6    0    0    8
         2     7       6    0    0    6
         3     7       6    0    3    0
 11      1     2       5    0    3    0
         2     3       2    0    0    9
         3     8       0    3    2    0
 12      1     0       0    0    0    0
************************************************************************
RESOURCEAVAILABILITIES:
  R 1  R 2  N 1  N 2
    8    7   51   63
************************************************************************
MAXIMAL LAGS:
from  to  type  delay
    1   12   ES      0
    1    2   ES      0
    2   12   ES      0
    1    3   ES      0
    3   12   ES      0
    1    4   ES      0
    4   12   ES      0
    1    5   ES      0
    5   12   ES      0
    1    6   ES      0
    6   12   ES      0
    1    7   ES      0
    7   12   ES      0
    1    8   ES      0
    8   12   ES      0
    1    9   ES      0
    9   12   ES      0
    1   10   ES      0
   10   12   ES      0
    1   11   ES      0
   11   12   ES      0
    1   12   ES      0
    2   10   SS     -3
    2   10   SE     12
    2   10   ES    -12
    2   10   EE      5
    2   11   SS     -4
    2   11   SE     -7
    2   11   ES     -3
    2   11   EE     -1
    3    5   SS      1
    3    5   SE    -12
    3    5   ES      2
    3    5   EE     -2
    3    6   SS     -3
    3    6   SE      8
    3    6   ES    -11
    3    6   EE      7
    4    8   SS     -9
    4    8   SE     -1
    4    8   ES     11
    4    8   EE    -11
    5    8   SS      5
    5    8   SE     11
    8    5   SE      0
    5    8   ES      0
    5    8   EE     -5
    5    9   SS     -7
    5    9   SE    -10
    5    9   ES      5
    5    9   EE     -9
    6    7   SS     -8
    6    7   SE     11
    6    7   ES     -8
    6    7   EE      8
    6    9   SS      3
    6    9   SE      1
    6    9   ES     -4
    6    9   EE     -1
    6   11   SS      2
    6   11   SE     10
    6   11   ES      7
    6   11   EE     -5
    7    8   SS     11
    7    8   SE      4
    7    8   ES      6
    7    8   EE      2
    8   10   SS    -11
    8   10   SE    -10
    8   10   ES     -2
    8   10   EE     -1
************************************************************************
